
(set-logic ALL) 

(declare-datatype MyList ((Nil) (Cons (head Real) (tail MyList)) )) 
(declare-fun l0 () MyList) 
(declare-fun l1 () MyList) 
(declare-fun l2 () MyList) 
(declare-fun l3 () MyList) 
(declare-fun i0 () Real) 
(declare-fun i1 () Real) 
(assert (is-Cons l1) )
(assert (or (is-Cons l3) (= l3 l0)) )
(assert (= l0 l2) )
(assert (= l1 Nil) )
(assert (or (= l2 l3) (= l2 l3) (is-Nil l1) (is-Cons l0)) )
(assert (or (is-Cons l1) (= l3 l1) (is-Nil l0)) )
(assert (= l0 Nil) )
(assert (and (= l1 l2) (= l3 Nil) (= l1 Nil)) )
(check-sat)
